p edge 48 96
e 1 21
e 1 22
e 2 23
e 2 24
e 3 37
e 3 29
e 3 30
e 3 38
e 4 40
e 4 39
e 4 31
e 4 32
e 5 33
e 5 34
e 5 37
e 5 39
e 5 45
e 5 46
e 5 21
e 5 23
e 5 29
e 5 31
e 6 35
e 6 36
e 6 38
e 6 40
e 6 47
e 6 48
e 6 22
e 6 24
e 6 30
e 6 32
e 7 33
e 7 35
e 7 41
e 7 42
e 7 17
e 7 18
e 7 21
e 7 24
e 7 25
e 7 26
e 8 34
e 8 36
e 8 43
e 8 44
e 8 19
e 8 20
e 8 22
e 8 23
e 8 27
e 8 28
e 9 45
e 9 47
e 9 17
e 9 19
e 9 25
e 9 27
e 10 46
e 10 48
e 10 18
e 10 20
e 10 26
e 10 28
e 11 25
e 11 28
e 11 37
e 11 40
e 12 26
e 12 27
e 12 38
e 12 39
e 13 33
e 13 36
e 13 41
e 13 43
e 13 17
e 13 20
e 14 34
e 14 35
e 14 42
e 14 44
e 14 18
e 14 19
e 15 41
e 15 44
e 15 45
e 15 48
e 15 29
e 15 32
e 16 42
e 16 43
e 16 46
e 16 47
e 16 30
e 16 31